p td 24 72
2 1
5 2
6 1
6 3
7 2
7 3
8 4
8 3
8 6
8 7
9 3
9 7
9 5
10 1
10 2
10 8
10 6
11 1
11 6
11 5
12 2
12 8
13 8
13 1
13 7
13 9
14 13
14 7
14 6
14 9
15 3
15 1
16 12
16 6
16 4
17 12
17 14
17 10
17 16
17 2
17 5
18 12
18 14
19 17
19 18
19 8
19 6
20 18
20 4
20 15
20 3
20 8
22 12
22 14
22 15
22 5
22 16
22 11
23 11
23 21
23 9
23 3
23 2
23 15
24 16
24 5
24 6
24 8
24 21
24 22
24 14
24 7
